3
10
19 0.78
12 0.31
17 0.77
22 0.77
8 0.56
10 0.33
17 0.35
24 0.12
22 0.70
5 0.52
120
4
2 0.12
1 0.1
3 0.2
2 0.15
5
15
26 41.79
232 29.65
194 23.01
144 8.33
220 48.48
219 12.20
24 39.53
42 7.77
285 43.64
45 27.15
218 36.23
245 29.12
197 48.75
144 7.29
162 41.36
1000
